NAME : portcgen-18-29
COMMENT : portcgen N=18, seed=29
TYPE : TSP
DIMENSION : 18
EDGE_WEIGHT_TYPE : EUC_2D
NODE_COORD_SECTION
1 -303470 -206533
2 -20150 539379
3 506487 -40073
4 270051 -98891
5 -159484 -110690
6 -279294 100409
7 -352247 -443145
8 -47683 -50216
9 71267 -132316
10 -322669 -322305
11 -375828 162827
12 254717 -75693
13 138803 439077
14 157633 109019
15 218457 386564
16 -26086 200298
17 -63863 -179581
18 -134591 -11962
